100 500 200 500 10 100
73 237
94 484
78 343
71 293
51 448
88 413
39 457
85 266
52 382
85 368
14 229
47 464
58 280
62 305
60 209
75 451
35 320
83 448
27 300
76 425
62 258
38 338
44 267
84 435
98 358
15 238
18 465
40 345
57 373
58 239
90 305
39 327
54 373
43 286
82 212
92 419
36 247
33 234
60 358
72 211
38 469
75 351
45 200
83 426
23 395
63 454
26 404
44 322
30 253
41 499
87 369
98 285
15 422
45 479
53 435
38 442
100 489
45 335
34 486
90 259
21 475
13 277
61 493
97 455
79 206
99 260
77 318
40 489
79 312
64 466
98 354
66 399
21 448
94 228
82 494
82 211
89 500
29 295
50 386
83 486
70 400
46 215
39 290
44 404
30 368
39 398
16 474
40 313
59 280
62 251
16 277
86 240
45 249
98 216
46 282
66 276
78 497
68 346
94 494
24 438
